\ LP format - for model browsing. Use MPS format to capture full model detail.
Minimize
  16 RUp(g1,s1,t1) - 16 RDn(g1,s1,t1) + 8.5 RUp(g2,s1,t1)
   - 8.5 RDn(g2,s1,t1) + 16 RUpSC(g1,s1,t1) - 16 RDnSC(g1,s1,t1)
   + 500 Lshed(s1,t1) + 16 RUp(g1,s1,t2) - 16 RDn(g1,s1,t2)
   + 8.5 RUp(g2,s1,t2) - 8.5 RDn(g2,s1,t2) + 16 RUpSC(g1,s1,t2)
   - 16 RDnSC(g1,s1,t2) + 500 Lshed(s1,t2) + 16 RUp(g1,s1,t3)
   - 16 RDn(g1,s1,t3) + 8.5 RUp(g2,s1,t3) - 8.5 RDn(g2,s1,t3)
   + 16 RUpSC(g1,s1,t3) - 16 RDnSC(g1,s1,t3) + 500 Lshed(s1,t3)
   + 16 RUp(g1,s1,t4) - 16 RDn(g1,s1,t4) + 8.5 RUp(g2,s1,t4)
   - 8.5 RDn(g2,s1,t4) + 16 RUpSC(g1,s1,t4) - 16 RDnSC(g1,s1,t4)
   + 500 Lshed(s1,t4) + 8 RUp(g1,s1,t5) - 8 RDn(g1,s1,t5)
   + 8.5 RUp(g2,s1,t5) - 8.5 RDn(g2,s1,t5) + 16 RUpSC(g1,s1,t5)
   - 16 RDnSC(g1,s1,t5) + 500 Lshed(s1,t5) + 8 RUp(g1,s1,t6)
   - 8 RDn(g1,s1,t6) + 8.5 RUp(g2,s1,t6) - 8.5 RDn(g2,s1,t6)
   + 16 RUpSC(g1,s1,t6) - 16 RDnSC(g1,s1,t6) + 500 Lshed(s1,t6)
   + 8 RUp(g1,s1,t7) - 8 RDn(g1,s1,t7) + 8.5 RUp(g2,s1,t7)
   - 8.5 RDn(g2,s1,t7) + 16 RUpSC(g1,s1,t7) - 16 RDnSC(g1,s1,t7)
   + 500 Lshed(s1,t7) + 8 RUp(g1,s1,t8) - 8 RDn(g1,s1,t8)
   + 8.5 RUp(g2,s1,t8) - 8.5 RDn(g2,s1,t8) + 16 RUpSC(g1,s1,t8)
   - 16 RDnSC(g1,s1,t8) + 500 Lshed(s1,t8) + 8 RUp(g1,s1,t9)
   - 8 RDn(g1,s1,t9) + 8.5 RUp(g2,s1,t9) - 8.5 RDn(g2,s1,t9)
   + 16 RUpSC(g1,s1,t9) - 16 RDnSC(g1,s1,t9) + 500 Lshed(s1,t9)
   + 8 RUp(g1,s1,t10) - 8 RDn(g1,s1,t10) + 8.5 RUp(g2,s1,t10)
   - 8.5 RDn(g2,s1,t10) + 16 RUpSC(g1,s1,t10) - 16 RDnSC(g1,s1,t10)
   + 500 Lshed(s1,t10) + 8 RUp(g1,s1,t11) - 8 RDn(g1,s1,t11)
   + 8.5 RUp(g2,s1,t11) - 8.5 RDn(g2,s1,t11) + 16 RUpSC(g1,s1,t11)
   - 16 RDnSC(g1,s1,t11) + 500 Lshed(s1,t11) + 8 RUp(g1,s1,t12)
   - 8 RDn(g1,s1,t12) + 8.5 RUp(g2,s1,t12) - 8.5 RDn(g2,s1,t12)
   + 16 RUpSC(g1,s1,t12) - 16 RDnSC(g1,s1,t12) + 500 Lshed(s1,t12)
   + 8 RUp(g1,s1,t13) - 8 RDn(g1,s1,t13) + 8.5 RUp(g2,s1,t13)
   - 8.5 RDn(g2,s1,t13) + 16 RUpSC(g1,s1,t13) - 16 RDnSC(g1,s1,t13)
   + 500 Lshed(s1,t13) + 8 RUp(g1,s1,t14) - 8 RDn(g1,s1,t14)
   + 8.5 RUp(g2,s1,t14) - 8.5 RDn(g2,s1,t14) + 16 RUpSC(g1,s1,t14)
   - 16 RDnSC(g1,s1,t14) + 500 Lshed(s1,t14) + 8 RUp(g1,s1,t15)
   - 8 RDn(g1,s1,t15) + 8.5 RUp(g2,s1,t15) - 8.5 RDn(g2,s1,t15)
   + 16 RUpSC(g1,s1,t15) - 16 RDnSC(g1,s1,t15) + 500 Lshed(s1,t15)
   + 8 RUp(g1,s1,t16) - 8 RDn(g1,s1,t16) + 8.5 RUp(g2,s1,t16)
   - 8.5 RDn(g2,s1,t16) + 16 RUpSC(g1,s1,t16) - 16 RDnSC(g1,s1,t16)
   + 500 Lshed(s1,t16) + 8 RUp(g1,s1,t17) - 8 RDn(g1,s1,t17)
   + 8.5 RUp(g2,s1,t17) - 8.5 RDn(g2,s1,t17) + 16 RUpSC(g1,s1,t17)
   - 16 RDnSC(g1,s1,t17) + 500 Lshed(s1,t17) + 8 RUp(g1,s1,t18)
   - 8 RDn(g1,s1,t18) + 8.5 RUp(g2,s1,t18) - 8.5 RDn(g2,s1,t18)
   + 16 RUpSC(g1,s1,t18) - 16 RDnSC(g1,s1,t18) + 500 Lshed(s1,t18)
   + 8 RUp(g1,s1,t19) - 8 RDn(g1,s1,t19) + 8.5 RUp(g2,s1,t19)
   - 8.5 RDn(g2,s1,t19) + 16 RUpSC(g1,s1,t19) - 16 RDnSC(g1,s1,t19)
   + 500 Lshed(s1,t19) + 8 RUp(g1,s1,t20) - 8 RDn(g1,s1,t20)
   + 8.5 RUp(g2,s1,t20) - 8.5 RDn(g2,s1,t20) + 16 RUpSC(g1,s1,t20)
   - 16 RDnSC(g1,s1,t20) + 500 Lshed(s1,t20) + 8 RUp(g1,s1,t21)
   - 8 RDn(g1,s1,t21) + 8.5 RUp(g2,s1,t21) - 8.5 RDn(g2,s1,t21)
   + 16 RUpSC(g1,s1,t21) - 16 RDnSC(g1,s1,t21) + 500 Lshed(s1,t21)
   + 8 RUp(g1,s1,t22) - 8 RDn(g1,s1,t22) + 8.5 RUp(g2,s1,t22)
   - 8.5 RDn(g2,s1,t22) + 16 RUpSC(g1,s1,t22) - 16 RDnSC(g1,s1,t22)
   + 500 Lshed(s1,t22) + 8 RUp(g1,s1,t23) - 8 RDn(g1,s1,t23)
   + 8.5 RUp(g2,s1,t23) - 8.5 RDn(g2,s1,t23) + 16 RUpSC(g1,s1,t23)
   - 16 RDnSC(g1,s1,t23) + 500 Lshed(s1,t23) + 8 RUp(g1,s1,t24)
   - 8 RDn(g1,s1,t24) + 8.5 RUp(g2,s1,t24) - 8.5 RDn(g2,s1,t24)
   + 16 RUpSC(g1,s1,t24) - 16 RDnSC(g1,s1,t24) + 500 Lshed(s1,t24)
   + 16 RUp(g1,s2,t1) - 16 RDn(g1,s2,t1) + 8.5 RUp(g2,s2,t1)
   - 8.5 RDn(g2,s2,t1) + 16 RUpSC(g1,s2,t1) - 16 RDnSC(g1,s2,t1)
   + 500 Lshed(s2,t1) + 16 RUp(g1,s2,t2) - 16 RDn(g1,s2,t2)
   + 8.5 RUp(g2,s2,t2) - 8.5 RDn(g2,s2,t2) + 16 RUpSC(g1,s2,t2)
   - 16 RDnSC(g1,s2,t2) + 500 Lshed(s2,t2) + 16 RUp(g1,s2,t3)
   - 16 RDn(g1,s2,t3) + 8.5 RUp(g2,s2,t3) - 8.5 RDn(g2,s2,t3)
   + 16 RUpSC(g1,s2,t3) - 16 RDnSC(g1,s2,t3) + 500 Lshed(s2,t3)
   + 16 RUp(g1,s2,t4) - 16 RDn(g1,s2,t4) + 8.5 RUp(g2,s2,t4)
   - 8.5 RDn(g2,s2,t4) + 16 RUpSC(g1,s2,t4) - 16 RDnSC(g1,s2,t4)
   + 500 Lshed(s2,t4) + 8 RUp(g1,s2,t5) - 8 RDn(g1,s2,t5)
   + 8.5 RUp(g2,s2,t5) - 8.5 RDn(g2,s2,t5) + 16 RUpSC(g1,s2,t5)
   - 16 RDnSC(g1,s2,t5) + 500 Lshed(s2,t5) + 8 RUp(g1,s2,t6)
   - 8 RDn(g1,s2,t6) + 8.5 RUp(g2,s2,t6) - 8.5 RDn(g2,s2,t6)
   + 16 RUpSC(g1,s2,t6) - 16 RDnSC(g1,s2,t6) + 500 Lshed(s2,t6)
   + 8 RUp(g1,s2,t7) - 8 RDn(g1,s2,t7) + 8.5 RUp(g2,s2,t7)
   - 8.5 RDn(g2,s2,t7) + 16 RUpSC(g1,s2,t7) - 16 RDnSC(g1,s2,t7)
   + 500 Lshed(s2,t7) + 8 RUp(g1,s2,t8) - 8 RDn(g1,s2,t8)
   + 8.5 RUp(g2,s2,t8) - 8.5 RDn(g2,s2,t8) + 16 RUpSC(g1,s2,t8)
   - 16 RDnSC(g1,s2,t8) + 500 Lshed(s2,t8) + 8 RUp(g1,s2,t9)
   - 8 RDn(g1,s2,t9) + 8.5 RUp(g2,s2,t9) - 8.5 RDn(g2,s2,t9)
   + 16 RUpSC(g1,s2,t9) - 16 RDnSC(g1,s2,t9) + 500 Lshed(s2,t9)
   + 8 RUp(g1,s2,t10) - 8 RDn(g1,s2,t10) + 8.5 RUp(g2,s2,t10)
   - 8.5 RDn(g2,s2,t10) + 16 RUpSC(g1,s2,t10) - 16 RDnSC(g1,s2,t10)
   + 500 Lshed(s2,t10) + 8 RUp(g1,s2,t11) - 8 RDn(g1,s2,t11)
   + 8.5 RUp(g2,s2,t11) - 8.5 RDn(g2,s2,t11) + 16 RUpSC(g1,s2,t11)
   - 16 RDnSC(g1,s2,t11) + 500 Lshed(s2,t11) + 8 RUp(g1,s2,t12)
   - 8 RDn(g1,s2,t12) + 8.5 RUp(g2,s2,t12) - 8.5 RDn(g2,s2,t12)
   + 16 RUpSC(g1,s2,t12) - 16 RDnSC(g1,s2,t12) + 500 Lshed(s2,t12)
   + 8 RUp(g1,s2,t13) - 8 RDn(g1,s2,t13) + 8.5 RUp(g2,s2,t13)
   - 8.5 RDn(g2,s2,t13) + 16 RUpSC(g1,s2,t13) - 16 RDnSC(g1,s2,t13)
   + 500 Lshed(s2,t13) + 8 RUp(g1,s2,t14) - 8 RDn(g1,s2,t14)
   + 8.5 RUp(g2,s2,t14) - 8.5 RDn(g2,s2,t14) + 16 RUpSC(g1,s2,t14)
   - 16 RDnSC(g1,s2,t14) + 500 Lshed(s2,t14) + 8 RUp(g1,s2,t15)
   - 8 RDn(g1,s2,t15) + 8.5 RUp(g2,s2,t15) - 8.5 RDn(g2,s2,t15)
   + 16 RUpSC(g1,s2,t15) - 16 RDnSC(g1,s2,t15) + 500 Lshed(s2,t15)
   + 8 RUp(g1,s2,t16) - 8 RDn(g1,s2,t16) + 8.5 RUp(g2,s2,t16)
   - 8.5 RDn(g2,s2,t16) + 16 RUpSC(g1,s2,t16) - 16 RDnSC(g1,s2,t16)
   + 500 Lshed(s2,t16) + 8 RUp(g1,s2,t17) - 8 RDn(g1,s2,t17)
   + 8.5 RUp(g2,s2,t17) - 8.5 RDn(g2,s2,t17) + 16 RUpSC(g1,s2,t17)
   - 16 RDnSC(g1,s2,t17) + 500 Lshed(s2,t17) + 8 RUp(g1,s2,t18)
   - 8 RDn(g1,s2,t18) + 8.5 RUp(g2,s2,t18) - 8.5 RDn(g2,s2,t18)
   + 16 RUpSC(g1,s2,t18) - 16 RDnSC(g1,s2,t18) + 500 Lshed(s2,t18)
   + 8 RUp(g1,s2,t19) - 8 RDn(g1,s2,t19) + 8.5 RUp(g2,s2,t19)
   - 8.5 RDn(g2,s2,t19) + 16 RUpSC(g1,s2,t19) - 16 RDnSC(g1,s2,t19)
   + 500 Lshed(s2,t19) + 8 RUp(g1,s2,t20) - 8 RDn(g1,s2,t20)
   + 8.5 RUp(g2,s2,t20) - 8.5 RDn(g2,s2,t20) + 16 RUpSC(g1,s2,t20)
   - 16 RDnSC(g1,s2,t20) + 500 Lshed(s2,t20) + 8 RUp(g1,s2,t21)
   - 8 RDn(g1,s2,t21) + 8.5 RUp(g2,s2,t21) - 8.5 RDn(g2,s2,t21)
   + 16 RUpSC(g1,s2,t21) - 16 RDnSC(g1,s2,t21) + 500 Lshed(s2,t21)
   + 8 RUp(g1,s2,t22) - 8 RDn(g1,s2,t22) + 8.5 RUp(g2,s2,t22)
   - 8.5 RDn(g2,s2,t22) + 16 RUpSC(g1,s2,t22) - 16 RDnSC(g1,s2,t22)
   + 500 Lshed(s2,t22) + 8 RUp(g1,s2,t23) - 8 RDn(g1,s2,t23)
   + 8.5 RUp(g2,s2,t23) - 8.5 RDn(g2,s2,t23) + 16 RUpSC(g1,s2,t23)
   - 16 RDnSC(g1,s2,t23) + 500 Lshed(s2,t23) + 8 RUp(g1,s2,t24)
   - 8 RDn(g1,s2,t24) + 8.5 RUp(g2,s2,t24) - 8.5 RDn(g2,s2,t24)
   + 16 RUpSC(g1,s2,t24) - 16 RDnSC(g1,s2,t24) + 500 Lshed(s2,t24)
Subject To
 PowerBalance_RT(s1,t1): RUp(g1,s1,t1) - RDn(g1,s1,t1) + RUp(g2,s1,t1)
   - RDn(g2,s1,t1) + RUpSC(g1,s1,t1) - RDnSC(g1,s1,t1) - Wspill(w1,s1,t1)
   + Lshed(s1,t1) = 28.38145050000001
 PowerBalance_RT(s1,t2): RUp(g1,s1,t2) - RDn(g1,s1,t2) + RUp(g2,s1,t2)
   - RDn(g2,s1,t2) + RUpSC(g1,s1,t2) - RDnSC(g1,s1,t2) - Wspill(w1,s1,t2)
   + Lshed(s1,t2) = 28.43810013000001
 PowerBalance_RT(s1,t3): RUp(g1,s1,t3) - RDn(g1,s1,t3) + RUp(g2,s1,t3)
   - RDn(g2,s1,t3) + RUpSC(g1,s1,t3) - RDnSC(g1,s1,t3) - Wspill(w1,s1,t3)
   + Lshed(s1,t3) = 28.43900049000001
 PowerBalance_RT(s1,t4): RUp(g1,s1,t4) - RDn(g1,s1,t4) + RUp(g2,s1,t4)
   - RDn(g2,s1,t4) + RUpSC(g1,s1,t4) - RDnSC(g1,s1,t4) - Wspill(w1,s1,t4)
   + Lshed(s1,t4) = 28.76240805
 PowerBalance_RT(s1,t5): RUp(g1,s1,t5) - RDn(g1,s1,t5) + RUp(g2,s1,t5)
   - RDn(g2,s1,t5) + RUpSC(g1,s1,t5) - RDnSC(g1,s1,t5) - Wspill(w1,s1,t5)
   + Lshed(s1,t5) = 29.33704011000001
 PowerBalance_RT(s1,t6): RUp(g1,s1,t6) - RDn(g1,s1,t6) + RUp(g2,s1,t6)
   - RDn(g2,s1,t6) + RUpSC(g1,s1,t6) - RDnSC(g1,s1,t6) - Wspill(w1,s1,t6)
   + Lshed(s1,t6) = 27.00734040000001
 PowerBalance_RT(s1,t7): RUp(g1,s1,t7) - RDn(g1,s1,t7) + RUp(g2,s1,t7)
   - RDn(g2,s1,t7) + RUpSC(g1,s1,t7) - RDnSC(g1,s1,t7) - Wspill(w1,s1,t7)
   + Lshed(s1,t7) = 27.57596544000001
 PowerBalance_RT(s1,t8): RUp(g1,s1,t8) - RDn(g1,s1,t8) + RUp(g2,s1,t8)
   - RDn(g2,s1,t8) + RUpSC(g1,s1,t8) - RDnSC(g1,s1,t8) - Wspill(w1,s1,t8)
   + Lshed(s1,t8) = 28.32445941000001
 PowerBalance_RT(s1,t9): RUp(g1,s1,t9) - RDn(g1,s1,t9) + RUp(g2,s1,t9)
   - RDn(g2,s1,t9) + RUpSC(g1,s1,t9) - RDnSC(g1,s1,t9) - Wspill(w1,s1,t9)
   + Lshed(s1,t9) = 28.93540284000001
 PowerBalance_RT(s1,t10): RUp(g1,s1,t10) - RDn(g1,s1,t10) + RUp(g2,s1,t10)
   - RDn(g2,s1,t10) + RUpSC(g1,s1,t10) - RDnSC(g1,s1,t10)
   - Wspill(w1,s1,t10) + Lshed(s1,t10) = 29.38557372000001
 PowerBalance_RT(s1,t11): RUp(g1,s1,t11) - RDn(g1,s1,t11) + RUp(g2,s1,t11)
   - RDn(g2,s1,t11) + RUpSC(g1,s1,t11) - RDnSC(g1,s1,t11)
   - Wspill(w1,s1,t11) + Lshed(s1,t11) = 29.62440342000001
 PowerBalance_RT(s1,t12): RUp(g1,s1,t12) - RDn(g1,s1,t12) + RUp(g2,s1,t12)
   - RDn(g2,s1,t12) + RUpSC(g1,s1,t12) - RDnSC(g1,s1,t12)
   - Wspill(w1,s1,t12) + Lshed(s1,t12) = 29.66842512000001
 PowerBalance_RT(s1,t13): RUp(g1,s1,t13) - RDn(g1,s1,t13) + RUp(g2,s1,t13)
   - RDn(g2,s1,t13) + RUpSC(g1,s1,t13) - RDnSC(g1,s1,t13)
   - Wspill(w1,s1,t13) + Lshed(s1,t13) = 29.33602512000001
 PowerBalance_RT(s1,t14): RUp(g1,s1,t14) - RDn(g1,s1,t14) + RUp(g2,s1,t14)
   - RDn(g2,s1,t14) + RUpSC(g1,s1,t14) - RDnSC(g1,s1,t14)
   - Wspill(w1,s1,t14) + Lshed(s1,t14) = 28.42489371000001
 PowerBalance_RT(s1,t15): RUp(g1,s1,t15) - RDn(g1,s1,t15) + RUp(g2,s1,t15)
   - RDn(g2,s1,t15) + RUpSC(g1,s1,t15) - RDnSC(g1,s1,t15)
   - Wspill(w1,s1,t15) + Lshed(s1,t15) = 28.52757588000001
 PowerBalance_RT(s1,t16): RUp(g1,s1,t16) - RDn(g1,s1,t16) + RUp(g2,s1,t16)
   - RDn(g2,s1,t16) + RUpSC(g1,s1,t16) - RDnSC(g1,s1,t16)
   - Wspill(w1,s1,t16) + Lshed(s1,t16) = 28.63232646000001
 PowerBalance_RT(s1,t17): RUp(g1,s1,t17) - RDn(g1,s1,t17) + RUp(g2,s1,t17)
   - RDn(g2,s1,t17) + RUpSC(g1,s1,t17) - RDnSC(g1,s1,t17)
   - Wspill(w1,s1,t17) + Lshed(s1,t17) = 28.77073506000001
 PowerBalance_RT(s1,t18): RUp(g1,s1,t18) - RDn(g1,s1,t18) + RUp(g2,s1,t18)
   - RDn(g2,s1,t18) + RUpSC(g1,s1,t18) - RDnSC(g1,s1,t18)
   - Wspill(w1,s1,t18) + Lshed(s1,t18) = 28.76649390000001
 PowerBalance_RT(s1,t19): RUp(g1,s1,t19) - RDn(g1,s1,t19) + RUp(g2,s1,t19)
   - RDn(g2,s1,t19) + RUpSC(g1,s1,t19) - RDnSC(g1,s1,t19)
   - Wspill(w1,s1,t19) + Lshed(s1,t19) = 28.66015461000001
 PowerBalance_RT(s1,t20): RUp(g1,s1,t20) - RDn(g1,s1,t20) + RUp(g2,s1,t20)
   - RDn(g2,s1,t20) + RUpSC(g1,s1,t20) - RDnSC(g1,s1,t20)
   - Wspill(w1,s1,t20) + Lshed(s1,t20) = 27.53456913000001
 PowerBalance_RT(s1,t21): RUp(g1,s1,t21) - RDn(g1,s1,t21) + RUp(g2,s1,t21)
   - RDn(g2,s1,t21) + RUpSC(g1,s1,t21) - RDnSC(g1,s1,t21)
   - Wspill(w1,s1,t21) + Lshed(s1,t21) = 26.04203634000001
 PowerBalance_RT(s1,t22): RUp(g1,s1,t22) - RDn(g1,s1,t22) + RUp(g2,s1,t22)
   - RDn(g2,s1,t22) + RUpSC(g1,s1,t22) - RDnSC(g1,s1,t22)
   - Wspill(w1,s1,t22) + Lshed(s1,t22) = 25.39932075000001
 PowerBalance_RT(s1,t23): RUp(g1,s1,t23) - RDn(g1,s1,t23) + RUp(g2,s1,t23)
   - RDn(g2,s1,t23) + RUpSC(g1,s1,t23) - RDnSC(g1,s1,t23)
   - Wspill(w1,s1,t23) + Lshed(s1,t23) = 25.48477584000001
 PowerBalance_RT(s1,t24): RUp(g1,s1,t24) - RDn(g1,s1,t24) + RUp(g2,s1,t24)
   - RDn(g2,s1,t24) + RUpSC(g1,s1,t24) - RDnSC(g1,s1,t24)
   - Wspill(w1,s1,t24) + Lshed(s1,t24) = 25.81147974000001
 PowerBalance_RT(s2,t1): RUp(g1,s2,t1) - RDn(g1,s2,t1) + RUp(g2,s2,t1)
   - RDn(g2,s2,t1) + RUpSC(g1,s2,t1) - RDnSC(g1,s2,t1) - Wspill(w1,s2,t1)
   + Lshed(s2,t1) = 16.35476172000001
 PowerBalance_RT(s2,t2): RUp(g1,s2,t2) - RDn(g1,s2,t2) + RUp(g2,s2,t2)
   - RDn(g2,s2,t2) + RUpSC(g1,s2,t2) - RDnSC(g1,s2,t2) - Wspill(w1,s2,t2)
   + Lshed(s2,t2) = 15.86789997000001
 PowerBalance_RT(s2,t3): RUp(g1,s2,t3) - RDn(g1,s2,t3) + RUp(g2,s2,t3)
   - RDn(g2,s2,t3) + RUpSC(g1,s2,t3) - RDnSC(g1,s2,t3) - Wspill(w1,s2,t3)
   + Lshed(s2,t3) = 20.42872578000001
 PowerBalance_RT(s2,t4): RUp(g1,s2,t4) - RDn(g1,s2,t4) + RUp(g2,s2,t4)
   - RDn(g2,s2,t4) + RUpSC(g1,s2,t4) - RDnSC(g1,s2,t4) - Wspill(w1,s2,t4)
   + Lshed(s2,t4) = 19.75504833
 PowerBalance_RT(s2,t5): RUp(g1,s2,t5) - RDn(g1,s2,t5) + RUp(g2,s2,t5)
   - RDn(g2,s2,t5) + RUpSC(g1,s2,t5) - RDnSC(g1,s2,t5) - Wspill(w1,s2,t5)
   + Lshed(s2,t5) = 16.62887955000001
 PowerBalance_RT(s2,t6): RUp(g1,s2,t6) - RDn(g1,s2,t6) + RUp(g2,s2,t6)
   - RDn(g2,s2,t6) + RUpSC(g1,s2,t6) - RDnSC(g1,s2,t6) - Wspill(w1,s2,t6)
   + Lshed(s2,t6) = 14.02374090000001
 PowerBalance_RT(s2,t7): RUp(g1,s2,t7) - RDn(g1,s2,t7) + RUp(g2,s2,t7)
   - RDn(g2,s2,t7) + RUpSC(g1,s2,t7) - RDnSC(g1,s2,t7) - Wspill(w1,s2,t7)
   + Lshed(s2,t7) = 16.90242027000001
 PowerBalance_RT(s2,t8): RUp(g1,s2,t8) - RDn(g1,s2,t8) + RUp(g2,s2,t8)
   - RDn(g2,s2,t8) + RUpSC(g1,s2,t8) - RDnSC(g1,s2,t8) - Wspill(w1,s2,t8)
   + Lshed(s2,t8) = 20.65173627000001
 PowerBalance_RT(s2,t9): RUp(g1,s2,t9) - RDn(g1,s2,t9) + RUp(g2,s2,t9)
   - RDn(g2,s2,t9) + RUpSC(g1,s2,t9) - RDnSC(g1,s2,t9) - Wspill(w1,s2,t9)
   + Lshed(s2,t9) = 21.96747201000001
 PowerBalance_RT(s2,t10): RUp(g1,s2,t10) - RDn(g1,s2,t10) + RUp(g2,s2,t10)
   - RDn(g2,s2,t10) + RUpSC(g1,s2,t10) - RDnSC(g1,s2,t10)
   - Wspill(w1,s2,t10) + Lshed(s2,t10) = 20.21947071000001
 PowerBalance_RT(s2,t11): RUp(g1,s2,t11) - RDn(g1,s2,t11) + RUp(g2,s2,t11)
   - RDn(g2,s2,t11) + RUpSC(g1,s2,t11) - RDnSC(g1,s2,t11)
   - Wspill(w1,s2,t11) + Lshed(s2,t11) = 16.76308578000001
 PowerBalance_RT(s2,t12): RUp(g1,s2,t12) - RDn(g1,s2,t12) + RUp(g2,s2,t12)
   - RDn(g2,s2,t12) + RUpSC(g1,s2,t12) - RDnSC(g1,s2,t12)
   - Wspill(w1,s2,t12) + Lshed(s2,t12) = 15.20881671000001
 PowerBalance_RT(s2,t13): RUp(g1,s2,t13) - RDn(g1,s2,t13) + RUp(g2,s2,t13)
   - RDn(g2,s2,t13) + RUpSC(g1,s2,t13) - RDnSC(g1,s2,t13)
   - Wspill(w1,s2,t13) + Lshed(s2,t13) = 7.328706270000009
 PowerBalance_RT(s2,t14): RUp(g1,s2,t14) - RDn(g1,s2,t14) + RUp(g2,s2,t14)
   - RDn(g2,s2,t14) + RUpSC(g1,s2,t14) - RDnSC(g1,s2,t14)
   - Wspill(w1,s2,t14) + Lshed(s2,t14) = 6.746225370000008
 PowerBalance_RT(s2,t15): RUp(g1,s2,t15) - RDn(g1,s2,t15) + RUp(g2,s2,t15)
   - RDn(g2,s2,t15) + RUpSC(g1,s2,t15) - RDnSC(g1,s2,t15)
   - Wspill(w1,s2,t15) + Lshed(s2,t15) = 5.915704830000006
 PowerBalance_RT(s2,t16): RUp(g1,s2,t16) - RDn(g1,s2,t16) + RUp(g2,s2,t16)
   - RDn(g2,s2,t16) + RUpSC(g1,s2,t16) - RDnSC(g1,s2,t16)
   - Wspill(w1,s2,t16) + Lshed(s2,t16) = 4.327774890000008
 PowerBalance_RT(s2,t17): RUp(g1,s2,t17) - RDn(g1,s2,t17) + RUp(g2,s2,t17)
   - RDn(g2,s2,t17) + RUpSC(g1,s2,t17) - RDnSC(g1,s2,t17)
   - Wspill(w1,s2,t17) + Lshed(s2,t17) = 3.037070970000009
 PowerBalance_RT(s2,t18): RUp(g1,s2,t18) - RDn(g1,s2,t18) + RUp(g2,s2,t18)
   - RDn(g2,s2,t18) + RUpSC(g1,s2,t18) - RDnSC(g1,s2,t18)
   - Wspill(w1,s2,t18) + Lshed(s2,t18) = 2.152941630000008
 PowerBalance_RT(s2,t19): RUp(g1,s2,t19) - RDn(g1,s2,t19) + RUp(g2,s2,t19)
   - RDn(g2,s2,t19) + RUpSC(g1,s2,t19) - RDnSC(g1,s2,t19)
   - Wspill(w1,s2,t19) + Lshed(s2,t19) = 2.023886910000009
 PowerBalance_RT(s2,t20): RUp(g1,s2,t20) - RDn(g1,s2,t20) + RUp(g2,s2,t20)
   - RDn(g2,s2,t20) + RUpSC(g1,s2,t20) - RDnSC(g1,s2,t20)
   - Wspill(w1,s2,t20) + Lshed(s2,t20) = 3.350670480000005
 PowerBalance_RT(s2,t21): RUp(g1,s2,t21) - RDn(g1,s2,t21) + RUp(g2,s2,t21)
   - RDn(g2,s2,t21) + RUpSC(g1,s2,t21) - RDnSC(g1,s2,t21)
   - Wspill(w1,s2,t21) + Lshed(s2,t21) = 2.981904870000008
 PowerBalance_RT(s2,t22): RUp(g1,s2,t22) - RDn(g1,s2,t22) + RUp(g2,s2,t22)
   - RDn(g2,s2,t22) + RUpSC(g1,s2,t22) - RDnSC(g1,s2,t22)
   - Wspill(w1,s2,t22) + Lshed(s2,t22) = 1.677027570000007
 PowerBalance_RT(s2,t23): RUp(g1,s2,t23) - RDn(g1,s2,t23) + RUp(g2,s2,t23)
   - RDn(g2,s2,t23) + RUpSC(g1,s2,t23) - RDnSC(g1,s2,t23)
   - Wspill(w1,s2,t23) + Lshed(s2,t23) = 1.123142850000004
 PowerBalance_RT(s2,t24): RUp(g1,s2,t24) - RDn(g1,s2,t24) + RUp(g2,s2,t24)
   - RDn(g2,s2,t24) + RUpSC(g1,s2,t24) - RDnSC(g1,s2,t24)
   - Wspill(w1,s2,t24) + Lshed(s2,t24) = 1.356445740000009
 RegUp_max_RT(g1,s1,t1): RUp(g1,s1,t1) <= 139
 RegDown_max_RT(g1,s1,t1): RDn(g1,s1,t1) <= 1
 RegUp_max_RT(g2,s1,t1): RUp(g2,s1,t1) <= 0
 RegDown_max_RT(g2,s1,t1): RDn(g2,s1,t1) <= 0
 RegUp_max_RT(g1,s1,t2): RUp(g1,s1,t2) <= 137.70590477
 RegDown_max_RT(g1,s1,t2): RDn(g1,s1,t2) <= 2.294095229999947
 RegUp_max_RT(g2,s1,t2): RUp(g2,s1,t2) <= 0
 RegDown_max_RT(g2,s1,t2): RDn(g2,s1,t2) <= 1
 RegUp_max_RT(g1,s1,t3): RUp(g1,s1,t3) <= 136.5
 RegDown_max_RT(g1,s1,t3): RDn(g1,s1,t3) <= 3.5
 RegUp_max_RT(g2,s1,t3): RUp(g2,s1,t3) <= 0
 RegDown_max_RT(g2,s1,t3): RDn(g2,s1,t3) <= 1
 RegUp_max_RT(g1,s1,t4): RUp(g1,s1,t4) <= 135.46446609
 RegDown_max_RT(g1,s1,t4): RDn(g1,s1,t4) <= 4.535533909999998
 RegUp_max_RT(g2,s1,t4): RUp(g2,s1,t4) <= 0
 RegDown_max_RT(g2,s1,t4): RDn(g2,s1,t4) <= 1
 RegUp_max_RT(g1,s1,t5): RUp(g1,s1,t5) <= 134.66987298
 RegDown_max_RT(g1,s1,t5): RDn(g1,s1,t5) <= 0
 RegUp_max_RT(g2,s1,t5): RUp(g2,s1,t5) <= 0
 RegDown_max_RT(g2,s1,t5): RDn(g2,s1,t5) <= 119
 RegUp_max_RT(g1,s1,t6): RUp(g1,s1,t6) <= 134.1703708700003
 RegDown_max_RT(g1,s1,t6): RDn(g1,s1,t6) <= 0
 RegUp_max_RT(g2,s1,t6): RUp(g2,s1,t6) <= 0
 RegDown_max_RT(g2,s1,t6): RDn(g2,s1,t6) <= 121
 RegUp_max_RT(g1,s1,t7): RUp(g1,s1,t7) <= 134
 RegDown_max_RT(g1,s1,t7): RDn(g1,s1,t7) <= 0
 RegUp_max_RT(g2,s1,t7): RUp(g2,s1,t7) <= 0
 RegDown_max_RT(g2,s1,t7): RDn(g2,s1,t7) <= 118
 RegUp_max_RT(g1,s1,t8): RUp(g1,s1,t8) <= 134.1703708700003
 RegDown_max_RT(g1,s1,t8): RDn(g1,s1,t8) <= 0
 RegUp_max_RT(g2,s1,t8): RUp(g2,s1,t8) <= 0
 RegDown_max_RT(g2,s1,t8): RDn(g2,s1,t8) <= 114
 RegUp_max_RT(g1,s1,t9): RUp(g1,s1,t9) <= 134.66987298
 RegDown_max_RT(g1,s1,t9): RDn(g1,s1,t9) <= 0
 RegUp_max_RT(g2,s1,t9): RUp(g2,s1,t9) <= 0
 RegDown_max_RT(g2,s1,t9): RDn(g2,s1,t9) <= 113
 RegUp_max_RT(g1,s1,t10): RUp(g1,s1,t10) <= 135.46446609
 RegDown_max_RT(g1,s1,t10): RDn(g1,s1,t10) <= 0
 RegUp_max_RT(g2,s1,t10): RUp(g2,s1,t10) <= 0
 RegDown_max_RT(g2,s1,t10): RDn(g2,s1,t10) <= 116
 RegUp_max_RT(g1,s1,t11): RUp(g1,s1,t11) <= 136.5
 RegDown_max_RT(g1,s1,t11): RDn(g1,s1,t11) <= 0
 RegUp_max_RT(g2,s1,t11): RUp(g2,s1,t11) <= 0
 RegDown_max_RT(g2,s1,t11): RDn(g2,s1,t11) <= 120
 RegUp_max_RT(g1,s1,t12): RUp(g1,s1,t12) <= 137.7059047700003
 RegDown_max_RT(g1,s1,t12): RDn(g1,s1,t12) <= 0
 RegUp_max_RT(g2,s1,t12): RUp(g2,s1,t12) <= 0
 RegDown_max_RT(g2,s1,t12): RDn(g2,s1,t12) <= 123
 RegUp_max_RT(g1,s1,t13): RUp(g1,s1,t13) <= 139
 RegDown_max_RT(g1,s1,t13): RDn(g1,s1,t13) <= 0
 RegUp_max_RT(g2,s1,t13): RUp(g2,s1,t13) <= 0
 RegDown_max_RT(g2,s1,t13): RDn(g2,s1,t13) <= 132
 RegUp_max_RT(g1,s1,t14): RUp(g1,s1,t14) <= 140.29409523
 RegDown_max_RT(g1,s1,t14): RDn(g1,s1,t14) <= 0
 RegUp_max_RT(g2,s1,t14): RUp(g2,s1,t14) <= 0
 RegDown_max_RT(g2,s1,t14): RDn(g2,s1,t14) <= 134
 RegUp_max_RT(g1,s1,t15): RUp(g1,s1,t15) <= 141.5
 RegDown_max_RT(g1,s1,t15): RDn(g1,s1,t15) <= 0
 RegUp_max_RT(g2,s1,t15): RUp(g2,s1,t15) <= 0
 RegDown_max_RT(g2,s1,t15): RDn(g2,s1,t15) <= 136
 RegUp_max_RT(g1,s1,t16): RUp(g1,s1,t16) <= 142.5355339100002
 RegDown_max_RT(g1,s1,t16): RDn(g1,s1,t16) <= 0
 RegUp_max_RT(g2,s1,t16): RUp(g2,s1,t16) <= 0
 RegDown_max_RT(g2,s1,t16): RDn(g2,s1,t16) <= 139
 RegUp_max_RT(g1,s1,t17): RUp(g1,s1,t17) <= 143.3301270200002
 RegDown_max_RT(g1,s1,t17): RDn(g1,s1,t17) <= 0
 RegUp_max_RT(g2,s1,t17): RUp(g2,s1,t17) <= 0
 RegDown_max_RT(g2,s1,t17): RDn(g2,s1,t17) <= 141
 RegUp_max_RT(g1,s1,t18): RUp(g1,s1,t18) <= 143.8296291300003
 RegDown_max_RT(g1,s1,t18): RDn(g1,s1,t18) <= 0
 RegUp_max_RT(g2,s1,t18): RUp(g2,s1,t18) <= 0
 RegDown_max_RT(g2,s1,t18): RDn(g2,s1,t18) <= 142
 RegUp_max_RT(g1,s1,t19): RUp(g1,s1,t19) <= 144
 RegDown_max_RT(g1,s1,t19): RDn(g1,s1,t19) <= 0
 RegUp_max_RT(g2,s1,t19): RUp(g2,s1,t19) <= 0
 RegDown_max_RT(g2,s1,t19): RDn(g2,s1,t19) <= 142
 RegUp_max_RT(g1,s1,t20): RUp(g1,s1,t20) <= 143.8296291300003
 RegDown_max_RT(g1,s1,t20): RDn(g1,s1,t20) <= 0
 RegUp_max_RT(g2,s1,t20): RUp(g2,s1,t20) <= 0
 RegDown_max_RT(g2,s1,t20): RDn(g2,s1,t20) <= 141
 RegUp_max_RT(g1,s1,t21): RUp(g1,s1,t21) <= 143.33012702
 RegDown_max_RT(g1,s1,t21): RDn(g1,s1,t21) <= 0
 RegUp_max_RT(g2,s1,t21): RUp(g2,s1,t21) <= 0
 RegDown_max_RT(g2,s1,t21): RDn(g2,s1,t21) <= 141
 RegUp_max_RT(g1,s1,t22): RUp(g1,s1,t22) <= 142.5355339100002
 RegDown_max_RT(g1,s1,t22): RDn(g1,s1,t22) <= 0
 RegUp_max_RT(g2,s1,t22): RUp(g2,s1,t22) <= 0
 RegDown_max_RT(g2,s1,t22): RDn(g2,s1,t22) <= 141
 RegUp_max_RT(g1,s1,t23): RUp(g1,s1,t23) <= 141.5
 RegDown_max_RT(g1,s1,t23): RDn(g1,s1,t23) <= 0
 RegUp_max_RT(g2,s1,t23): RUp(g2,s1,t23) <= 0
 RegDown_max_RT(g2,s1,t23): RDn(g2,s1,t23) <= 141
 RegUp_max_RT(g1,s1,t24): RUp(g1,s1,t24) <= 140.2940952300003
 RegDown_max_RT(g1,s1,t24): RDn(g1,s1,t24) <= 0
 RegUp_max_RT(g2,s1,t24): RUp(g2,s1,t24) <= 0
 RegDown_max_RT(g2,s1,t24): RDn(g2,s1,t24) <= 139
 RegUp_max_RT(g1,s2,t1): RUp(g1,s2,t1) <= 139
 RegDown_max_RT(g1,s2,t1): RDn(g1,s2,t1) <= 1
 RegUp_max_RT(g2,s2,t1): RUp(g2,s2,t1) <= 0
 RegDown_max_RT(g2,s2,t1): RDn(g2,s2,t1) <= 0
 RegUp_max_RT(g1,s2,t2): RUp(g1,s2,t2) <= 137.70590477
 RegDown_max_RT(g1,s2,t2): RDn(g1,s2,t2) <= 2.294095229999947
 RegUp_max_RT(g2,s2,t2): RUp(g2,s2,t2) <= 0
 RegDown_max_RT(g2,s2,t2): RDn(g2,s2,t2) <= 1
 RegUp_max_RT(g1,s2,t3): RUp(g1,s2,t3) <= 136.5
 RegDown_max_RT(g1,s2,t3): RDn(g1,s2,t3) <= 3.5
 RegUp_max_RT(g2,s2,t3): RUp(g2,s2,t3) <= 0
 RegDown_max_RT(g2,s2,t3): RDn(g2,s2,t3) <= 1
 RegUp_max_RT(g1,s2,t4): RUp(g1,s2,t4) <= 135.46446609
 RegDown_max_RT(g1,s2,t4): RDn(g1,s2,t4) <= 4.535533909999998
 RegUp_max_RT(g2,s2,t4): RUp(g2,s2,t4) <= 0
 RegDown_max_RT(g2,s2,t4): RDn(g2,s2,t4) <= 1
 RegUp_max_RT(g1,s2,t5): RUp(g1,s2,t5) <= 134.66987298
 RegDown_max_RT(g1,s2,t5): RDn(g1,s2,t5) <= 0
 RegUp_max_RT(g2,s2,t5): RUp(g2,s2,t5) <= 0
 RegDown_max_RT(g2,s2,t5): RDn(g2,s2,t5) <= 119
 RegUp_max_RT(g1,s2,t6): RUp(g1,s2,t6) <= 134.1703708700003
 RegDown_max_RT(g1,s2,t6): RDn(g1,s2,t6) <= 0
 RegUp_max_RT(g2,s2,t6): RUp(g2,s2,t6) <= 0
 RegDown_max_RT(g2,s2,t6): RDn(g2,s2,t6) <= 121
 RegUp_max_RT(g1,s2,t7): RUp(g1,s2,t7) <= 134
 RegDown_max_RT(g1,s2,t7): RDn(g1,s2,t7) <= 0
 RegUp_max_RT(g2,s2,t7): RUp(g2,s2,t7) <= 0
 RegDown_max_RT(g2,s2,t7): RDn(g2,s2,t7) <= 118
 RegUp_max_RT(g1,s2,t8): RUp(g1,s2,t8) <= 134.1703708700003
 RegDown_max_RT(g1,s2,t8): RDn(g1,s2,t8) <= 0
 RegUp_max_RT(g2,s2,t8): RUp(g2,s2,t8) <= 0
 RegDown_max_RT(g2,s2,t8): RDn(g2,s2,t8) <= 114
 RegUp_max_RT(g1,s2,t9): RUp(g1,s2,t9) <= 134.66987298
 RegDown_max_RT(g1,s2,t9): RDn(g1,s2,t9) <= 0
 RegUp_max_RT(g2,s2,t9): RUp(g2,s2,t9) <= 0
 RegDown_max_RT(g2,s2,t9): RDn(g2,s2,t9) <= 113
 RegUp_max_RT(g1,s2,t10): RUp(g1,s2,t10) <= 135.46446609
 RegDown_max_RT(g1,s2,t10): RDn(g1,s2,t10) <= 0
 RegUp_max_RT(g2,s2,t10): RUp(g2,s2,t10) <= 0
 RegDown_max_RT(g2,s2,t10): RDn(g2,s2,t10) <= 116
 RegUp_max_RT(g1,s2,t11): RUp(g1,s2,t11) <= 136.5
 RegDown_max_RT(g1,s2,t11): RDn(g1,s2,t11) <= 0
 RegUp_max_RT(g2,s2,t11): RUp(g2,s2,t11) <= 0
 RegDown_max_RT(g2,s2,t11): RDn(g2,s2,t11) <= 120
 RegUp_max_RT(g1,s2,t12): RUp(g1,s2,t12) <= 137.7059047700003
 RegDown_max_RT(g1,s2,t12): RDn(g1,s2,t12) <= 0
 RegUp_max_RT(g2,s2,t12): RUp(g2,s2,t12) <= 0
 RegDown_max_RT(g2,s2,t12): RDn(g2,s2,t12) <= 123
 RegUp_max_RT(g1,s2,t13): RUp(g1,s2,t13) <= 139
 RegDown_max_RT(g1,s2,t13): RDn(g1,s2,t13) <= 0
 RegUp_max_RT(g2,s2,t13): RUp(g2,s2,t13) <= 0
 RegDown_max_RT(g2,s2,t13): RDn(g2,s2,t13) <= 132
 RegUp_max_RT(g1,s2,t14): RUp(g1,s2,t14) <= 140.29409523
 RegDown_max_RT(g1,s2,t14): RDn(g1,s2,t14) <= 0
 RegUp_max_RT(g2,s2,t14): RUp(g2,s2,t14) <= 0
 RegDown_max_RT(g2,s2,t14): RDn(g2,s2,t14) <= 134
 RegUp_max_RT(g1,s2,t15): RUp(g1,s2,t15) <= 141.5
 RegDown_max_RT(g1,s2,t15): RDn(g1,s2,t15) <= 0
 RegUp_max_RT(g2,s2,t15): RUp(g2,s2,t15) <= 0
 RegDown_max_RT(g2,s2,t15): RDn(g2,s2,t15) <= 136
 RegUp_max_RT(g1,s2,t16): RUp(g1,s2,t16) <= 142.5355339100002
 RegDown_max_RT(g1,s2,t16): RDn(g1,s2,t16) <= 0
 RegUp_max_RT(g2,s2,t16): RUp(g2,s2,t16) <= 0
 RegDown_max_RT(g2,s2,t16): RDn(g2,s2,t16) <= 139
 RegUp_max_RT(g1,s2,t17): RUp(g1,s2,t17) <= 143.3301270200002
 RegDown_max_RT(g1,s2,t17): RDn(g1,s2,t17) <= 0
 RegUp_max_RT(g2,s2,t17): RUp(g2,s2,t17) <= 0
 RegDown_max_RT(g2,s2,t17): RDn(g2,s2,t17) <= 141
 RegUp_max_RT(g1,s2,t18): RUp(g1,s2,t18) <= 143.8296291300003
 RegDown_max_RT(g1,s2,t18): RDn(g1,s2,t18) <= 0
 RegUp_max_RT(g2,s2,t18): RUp(g2,s2,t18) <= 0
 RegDown_max_RT(g2,s2,t18): RDn(g2,s2,t18) <= 142
 RegUp_max_RT(g1,s2,t19): RUp(g1,s2,t19) <= 144
 RegDown_max_RT(g1,s2,t19): RDn(g1,s2,t19) <= 0
 RegUp_max_RT(g2,s2,t19): RUp(g2,s2,t19) <= 0
 RegDown_max_RT(g2,s2,t19): RDn(g2,s2,t19) <= 142
 RegUp_max_RT(g1,s2,t20): RUp(g1,s2,t20) <= 143.8296291300003
 RegDown_max_RT(g1,s2,t20): RDn(g1,s2,t20) <= 0
 RegUp_max_RT(g2,s2,t20): RUp(g2,s2,t20) <= 0
 RegDown_max_RT(g2,s2,t20): RDn(g2,s2,t20) <= 141
 RegUp_max_RT(g1,s2,t21): RUp(g1,s2,t21) <= 143.33012702
 RegDown_max_RT(g1,s2,t21): RDn(g1,s2,t21) <= 0
 RegUp_max_RT(g2,s2,t21): RUp(g2,s2,t21) <= 0
 RegDown_max_RT(g2,s2,t21): RDn(g2,s2,t21) <= 141
 RegUp_max_RT(g1,s2,t22): RUp(g1,s2,t22) <= 142.5355339100002
 RegDown_max_RT(g1,s2,t22): RDn(g1,s2,t22) <= 0
 RegUp_max_RT(g2,s2,t22): RUp(g2,s2,t22) <= 0
 RegDown_max_RT(g2,s2,t22): RDn(g2,s2,t22) <= 141
 RegUp_max_RT(g1,s2,t23): RUp(g1,s2,t23) <= 141.5
 RegDown_max_RT(g1,s2,t23): RDn(g1,s2,t23) <= 0
 RegUp_max_RT(g2,s2,t23): RUp(g2,s2,t23) <= 0
 RegDown_max_RT(g2,s2,t23): RDn(g2,s2,t23) <= 141
 RegUp_max_RT(g1,s2,t24): RUp(g1,s2,t24) <= 140.2940952300003
 RegDown_max_RT(g1,s2,t24): RDn(g1,s2,t24) <= 0
 RegUp_max_RT(g2,s2,t24): RUp(g2,s2,t24) <= 0
 RegDown_max_RT(g2,s2,t24): RDn(g2,s2,t24) <= 139
 RegUpSC_max_RT(g1,s1,t1): RUpSC(g1,s1,t1) <= 0
 RegDnSC_max_RT(g1,s1,t1): RDnSC(g1,s1,t1) <= 10
 RegUpSC_max_RT(g1,s1,t2): RUpSC(g1,s1,t2) <= 0
 RegDnSC_max_RT(g1,s1,t2): RDnSC(g1,s1,t2) <= 10
 RegUpSC_max_RT(g1,s1,t3): RUpSC(g1,s1,t3) <= 0
 RegDnSC_max_RT(g1,s1,t3): RDnSC(g1,s1,t3) <= 10
 RegUpSC_max_RT(g1,s1,t4): RUpSC(g1,s1,t4) <= 0
 RegDnSC_max_RT(g1,s1,t4): RDnSC(g1,s1,t4) <= 10
 RegUpSC_max_RT(g1,s1,t5): RUpSC(g1,s1,t5) <= 0
 RegDnSC_max_RT(g1,s1,t5): RDnSC(g1,s1,t5) <= 0
 RegUpSC_max_RT(g1,s1,t6): RUpSC(g1,s1,t6) <= 0
 RegDnSC_max_RT(g1,s1,t6): RDnSC(g1,s1,t6) <= 0
 RegUpSC_max_RT(g1,s1,t7): RUpSC(g1,s1,t7) <= 0
 RegDnSC_max_RT(g1,s1,t7): RDnSC(g1,s1,t7) <= 0
 RegUpSC_max_RT(g1,s1,t8): RUpSC(g1,s1,t8) <= 0
 RegDnSC_max_RT(g1,s1,t8): RDnSC(g1,s1,t8) <= 0
 RegUpSC_max_RT(g1,s1,t9): RUpSC(g1,s1,t9) <= 0
 RegDnSC_max_RT(g1,s1,t9): RDnSC(g1,s1,t9) <= 0
 RegUpSC_max_RT(g1,s1,t10): RUpSC(g1,s1,t10) <= 0
 RegDnSC_max_RT(g1,s1,t10): RDnSC(g1,s1,t10) <= 0
 RegUpSC_max_RT(g1,s1,t11): RUpSC(g1,s1,t11) <= 0
 RegDnSC_max_RT(g1,s1,t11): RDnSC(g1,s1,t11) <= 0
 RegUpSC_max_RT(g1,s1,t12): RUpSC(g1,s1,t12) <= 0
 RegDnSC_max_RT(g1,s1,t12): RDnSC(g1,s1,t12) <= 0
 RegUpSC_max_RT(g1,s1,t13): RUpSC(g1,s1,t13) <= 0
 RegDnSC_max_RT(g1,s1,t13): RDnSC(g1,s1,t13) <= 0
 RegUpSC_max_RT(g1,s1,t14): RUpSC(g1,s1,t14) <= 0
 RegDnSC_max_RT(g1,s1,t14): RDnSC(g1,s1,t14) <= 0
 RegUpSC_max_RT(g1,s1,t15): RUpSC(g1,s1,t15) <= 0
 RegDnSC_max_RT(g1,s1,t15): RDnSC(g1,s1,t15) <= 0
 RegUpSC_max_RT(g1,s1,t16): RUpSC(g1,s1,t16) <= 0
 RegDnSC_max_RT(g1,s1,t16): RDnSC(g1,s1,t16) <= 0
 RegUpSC_max_RT(g1,s1,t17): RUpSC(g1,s1,t17) <= 0
 RegDnSC_max_RT(g1,s1,t17): RDnSC(g1,s1,t17) <= 0
 RegUpSC_max_RT(g1,s1,t18): RUpSC(g1,s1,t18) <= 0
 RegDnSC_max_RT(g1,s1,t18): RDnSC(g1,s1,t18) <= 0
 RegUpSC_max_RT(g1,s1,t19): RUpSC(g1,s1,t19) <= 0
 RegDnSC_max_RT(g1,s1,t19): RDnSC(g1,s1,t19) <= 0
 RegUpSC_max_RT(g1,s1,t20): RUpSC(g1,s1,t20) <= 0
 RegDnSC_max_RT(g1,s1,t20): RDnSC(g1,s1,t20) <= 0
 RegUpSC_max_RT(g1,s1,t21): RUpSC(g1,s1,t21) <= 0
 RegDnSC_max_RT(g1,s1,t21): RDnSC(g1,s1,t21) <= 0
 RegUpSC_max_RT(g1,s1,t22): RUpSC(g1,s1,t22) <= 0
 RegDnSC_max_RT(g1,s1,t22): RDnSC(g1,s1,t22) <= 0
 RegUpSC_max_RT(g1,s1,t23): RUpSC(g1,s1,t23) <= 0
 RegDnSC_max_RT(g1,s1,t23): RDnSC(g1,s1,t23) <= 0
 RegUpSC_max_RT(g1,s1,t24): RUpSC(g1,s1,t24) <= 0
 RegDnSC_max_RT(g1,s1,t24): RDnSC(g1,s1,t24) <= 0
 RegUpSC_max_RT(g1,s2,t1): RUpSC(g1,s2,t1) <= 0
 RegDnSC_max_RT(g1,s2,t1): RDnSC(g1,s2,t1) <= 10
 RegUpSC_max_RT(g1,s2,t2): RUpSC(g1,s2,t2) <= 0
 RegDnSC_max_RT(g1,s2,t2): RDnSC(g1,s2,t2) <= 10
 RegUpSC_max_RT(g1,s2,t3): RUpSC(g1,s2,t3) <= 0
 RegDnSC_max_RT(g1,s2,t3): RDnSC(g1,s2,t3) <= 10
 RegUpSC_max_RT(g1,s2,t4): RUpSC(g1,s2,t4) <= 0
 RegDnSC_max_RT(g1,s2,t4): RDnSC(g1,s2,t4) <= 10
 RegUpSC_max_RT(g1,s2,t5): RUpSC(g1,s2,t5) <= 0
 RegDnSC_max_RT(g1,s2,t5): RDnSC(g1,s2,t5) <= 0
 RegUpSC_max_RT(g1,s2,t6): RUpSC(g1,s2,t6) <= 0
 RegDnSC_max_RT(g1,s2,t6): RDnSC(g1,s2,t6) <= 0
 RegUpSC_max_RT(g1,s2,t7): RUpSC(g1,s2,t7) <= 0
 RegDnSC_max_RT(g1,s2,t7): RDnSC(g1,s2,t7) <= 0
 RegUpSC_max_RT(g1,s2,t8): RUpSC(g1,s2,t8) <= 0
 RegDnSC_max_RT(g1,s2,t8): RDnSC(g1,s2,t8) <= 0
 RegUpSC_max_RT(g1,s2,t9): RUpSC(g1,s2,t9) <= 0
 RegDnSC_max_RT(g1,s2,t9): RDnSC(g1,s2,t9) <= 0
 RegUpSC_max_RT(g1,s2,t10): RUpSC(g1,s2,t10) <= 0
 RegDnSC_max_RT(g1,s2,t10): RDnSC(g1,s2,t10) <= 0
 RegUpSC_max_RT(g1,s2,t11): RUpSC(g1,s2,t11) <= 0
 RegDnSC_max_RT(g1,s2,t11): RDnSC(g1,s2,t11) <= 0
 RegUpSC_max_RT(g1,s2,t12): RUpSC(g1,s2,t12) <= 0
 RegDnSC_max_RT(g1,s2,t12): RDnSC(g1,s2,t12) <= 0
 RegUpSC_max_RT(g1,s2,t13): RUpSC(g1,s2,t13) <= 0
 RegDnSC_max_RT(g1,s2,t13): RDnSC(g1,s2,t13) <= 0
 RegUpSC_max_RT(g1,s2,t14): RUpSC(g1,s2,t14) <= 0
 RegDnSC_max_RT(g1,s2,t14): RDnSC(g1,s2,t14) <= 0
 RegUpSC_max_RT(g1,s2,t15): RUpSC(g1,s2,t15) <= 0
 RegDnSC_max_RT(g1,s2,t15): RDnSC(g1,s2,t15) <= 0
 RegUpSC_max_RT(g1,s2,t16): RUpSC(g1,s2,t16) <= 0
 RegDnSC_max_RT(g1,s2,t16): RDnSC(g1,s2,t16) <= 0
 RegUpSC_max_RT(g1,s2,t17): RUpSC(g1,s2,t17) <= 0
 RegDnSC_max_RT(g1,s2,t17): RDnSC(g1,s2,t17) <= 0
 RegUpSC_max_RT(g1,s2,t18): RUpSC(g1,s2,t18) <= 0
 RegDnSC_max_RT(g1,s2,t18): RDnSC(g1,s2,t18) <= 0
 RegUpSC_max_RT(g1,s2,t19): RUpSC(g1,s2,t19) <= 0
 RegDnSC_max_RT(g1,s2,t19): RDnSC(g1,s2,t19) <= 0
 RegUpSC_max_RT(g1,s2,t20): RUpSC(g1,s2,t20) <= 0
 RegDnSC_max_RT(g1,s2,t20): RDnSC(g1,s2,t20) <= 0
 RegUpSC_max_RT(g1,s2,t21): RUpSC(g1,s2,t21) <= 0
 RegDnSC_max_RT(g1,s2,t21): RDnSC(g1,s2,t21) <= 0
 RegUpSC_max_RT(g1,s2,t22): RUpSC(g1,s2,t22) <= 0
 RegDnSC_max_RT(g1,s2,t22): RDnSC(g1,s2,t22) <= 0
 RegUpSC_max_RT(g1,s2,t23): RUpSC(g1,s2,t23) <= 0
 RegDnSC_max_RT(g1,s2,t23): RDnSC(g1,s2,t23) <= 0
 RegUpSC_max_RT(g1,s2,t24): RUpSC(g1,s2,t24) <= 0
 RegDnSC_max_RT(g1,s2,t24): RDnSC(g1,s2,t24) <= 0
 Max_load_shed_RT(s1,t1): Lshed(s1,t1) <= 50
 Max_load_shed_RT(s1,t2): Lshed(s1,t2) <= 51.29409523
 Max_load_shed_RT(s1,t3): Lshed(s1,t3) <= 52.5
 Max_load_shed_RT(s1,t4): Lshed(s1,t4) <= 53.53553391
 Max_load_shed_RT(s1,t5): Lshed(s1,t5) <= 54.33012702
 Max_load_shed_RT(s1,t6): Lshed(s1,t6) <= 54.82962913
 Max_load_shed_RT(s1,t7): Lshed(s1,t7) <= 55
 Max_load_shed_RT(s1,t8): Lshed(s1,t8) <= 54.82962913
 Max_load_shed_RT(s1,t9): Lshed(s1,t9) <= 54.33012702
 Max_load_shed_RT(s1,t10): Lshed(s1,t10) <= 53.53553391
 Max_load_shed_RT(s1,t11): Lshed(s1,t11) <= 52.5
 Max_load_shed_RT(s1,t12): Lshed(s1,t12) <= 51.29409523
 Max_load_shed_RT(s1,t13): Lshed(s1,t13) <= 50
 Max_load_shed_RT(s1,t14): Lshed(s1,t14) <= 48.70590477
 Max_load_shed_RT(s1,t15): Lshed(s1,t15) <= 47.5
 Max_load_shed_RT(s1,t16): Lshed(s1,t16) <= 46.46446609
 Max_load_shed_RT(s1,t17): Lshed(s1,t17) <= 45.66987298
 Max_load_shed_RT(s1,t18): Lshed(s1,t18) <= 45.17037087
 Max_load_shed_RT(s1,t19): Lshed(s1,t19) <= 45
 Max_load_shed_RT(s1,t20): Lshed(s1,t20) <= 45.17037087
 Max_load_shed_RT(s1,t21): Lshed(s1,t21) <= 45.66987298
 Max_load_shed_RT(s1,t22): Lshed(s1,t22) <= 46.46446609
 Max_load_shed_RT(s1,t23): Lshed(s1,t23) <= 47.5
 Max_load_shed_RT(s1,t24): Lshed(s1,t24) <= 48.70590477
 Max_load_shed_RT(s2,t1): Lshed(s2,t1) <= 50
 Max_load_shed_RT(s2,t2): Lshed(s2,t2) <= 51.29409523
 Max_load_shed_RT(s2,t3): Lshed(s2,t3) <= 52.5
 Max_load_shed_RT(s2,t4): Lshed(s2,t4) <= 53.53553391
 Max_load_shed_RT(s2,t5): Lshed(s2,t5) <= 54.33012702
 Max_load_shed_RT(s2,t6): Lshed(s2,t6) <= 54.82962913
 Max_load_shed_RT(s2,t7): Lshed(s2,t7) <= 55
 Max_load_shed_RT(s2,t8): Lshed(s2,t8) <= 54.82962913
 Max_load_shed_RT(s2,t9): Lshed(s2,t9) <= 54.33012702
 Max_load_shed_RT(s2,t10): Lshed(s2,t10) <= 53.53553391
 Max_load_shed_RT(s2,t11): Lshed(s2,t11) <= 52.5
 Max_load_shed_RT(s2,t12): Lshed(s2,t12) <= 51.29409523
 Max_load_shed_RT(s2,t13): Lshed(s2,t13) <= 50
 Max_load_shed_RT(s2,t14): Lshed(s2,t14) <= 48.70590477
 Max_load_shed_RT(s2,t15): Lshed(s2,t15) <= 47.5
 Max_load_shed_RT(s2,t16): Lshed(s2,t16) <= 46.46446609
 Max_load_shed_RT(s2,t17): Lshed(s2,t17) <= 45.66987298
 Max_load_shed_RT(s2,t18): Lshed(s2,t18) <= 45.17037087
 Max_load_shed_RT(s2,t19): Lshed(s2,t19) <= 45
 Max_load_shed_RT(s2,t20): Lshed(s2,t20) <= 45.17037087
 Max_load_shed_RT(s2,t21): Lshed(s2,t21) <= 45.66987298
 Max_load_shed_RT(s2,t22): Lshed(s2,t22) <= 46.46446609
 Max_load_shed_RT(s2,t23): Lshed(s2,t23) <= 47.5
 Max_load_shed_RT(s2,t24): Lshed(s2,t24) <= 48.70590477
 Max_wind_spill_RT(w1,s1,t1): Wspill(w1,s1,t1) <= 1.6185495
 Max_wind_spill_RT(w1,s1,t2): Wspill(w1,s1,t2) <= 1.56189987
 Max_wind_spill_RT(w1,s1,t3): Wspill(w1,s1,t3) <= 1.56099951
 Max_wind_spill_RT(w1,s1,t4): Wspill(w1,s1,t4) <= 1.23759195
 Max_wind_spill_RT(w1,s1,t5): Wspill(w1,s1,t5) <= 0.6629598899999999
 Max_wind_spill_RT(w1,s1,t6): Wspill(w1,s1,t6) <= 2.9926596
 Max_wind_spill_RT(w1,s1,t7): Wspill(w1,s1,t7) <= 2.42403456
 Max_wind_spill_RT(w1,s1,t8): Wspill(w1,s1,t8) <= 1.67554059
 Max_wind_spill_RT(w1,s1,t9): Wspill(w1,s1,t9) <= 1.06459716
 Max_wind_spill_RT(w1,s1,t10): Wspill(w1,s1,t10) <= 0.6144262800000001
 Max_wind_spill_RT(w1,s1,t11): Wspill(w1,s1,t11) <= 0.37559658
 Max_wind_spill_RT(w1,s1,t12): Wspill(w1,s1,t12) <= 0.33157488
 Max_wind_spill_RT(w1,s1,t13): Wspill(w1,s1,t13) <= 0.6639748800000001
 Max_wind_spill_RT(w1,s1,t14): Wspill(w1,s1,t14) <= 1.57510629
 Max_wind_spill_RT(w1,s1,t15): Wspill(w1,s1,t15) <= 1.47242412
 Max_wind_spill_RT(w1,s1,t16): Wspill(w1,s1,t16) <= 1.36767354
 Max_wind_spill_RT(w1,s1,t17): Wspill(w1,s1,t17) <= 1.22926494
 Max_wind_spill_RT(w1,s1,t18): Wspill(w1,s1,t18) <= 1.2335061
 Max_wind_spill_RT(w1,s1,t19): Wspill(w1,s1,t19) <= 1.33984539
 Max_wind_spill_RT(w1,s1,t20): Wspill(w1,s1,t20) <= 2.46543087
 Max_wind_spill_RT(w1,s1,t21): Wspill(w1,s1,t21) <= 3.957963659999999
 Max_wind_spill_RT(w1,s1,t22): Wspill(w1,s1,t22) <= 4.60067925
 Max_wind_spill_RT(w1,s1,t23): Wspill(w1,s1,t23) <= 4.51522416
 Max_wind_spill_RT(w1,s1,t24): Wspill(w1,s1,t24) <= 4.18852026
 Max_wind_spill_RT(w1,s2,t1): Wspill(w1,s2,t1) <= 13.64523828
 Max_wind_spill_RT(w1,s2,t2): Wspill(w1,s2,t2) <= 14.13210003
 Max_wind_spill_RT(w1,s2,t3): Wspill(w1,s2,t3) <= 9.571274219999999
 Max_wind_spill_RT(w1,s2,t4): Wspill(w1,s2,t4) <= 10.24495167
 Max_wind_spill_RT(w1,s2,t5): Wspill(w1,s2,t5) <= 13.37112045
 Max_wind_spill_RT(w1,s2,t6): Wspill(w1,s2,t6) <= 15.9762591
 Max_wind_spill_RT(w1,s2,t7): Wspill(w1,s2,t7) <= 13.09757973
 Max_wind_spill_RT(w1,s2,t8): Wspill(w1,s2,t8) <= 9.348263729999999
 Max_wind_spill_RT(w1,s2,t9): Wspill(w1,s2,t9) <= 8.03252799
 Max_wind_spill_RT(w1,s2,t10): Wspill(w1,s2,t10) <= 9.780529290000001
 Max_wind_spill_RT(w1,s2,t11): Wspill(w1,s2,t11) <= 13.23691422
 Max_wind_spill_RT(w1,s2,t12): Wspill(w1,s2,t12) <= 14.79118329
 Max_wind_spill_RT(w1,s2,t13): Wspill(w1,s2,t13) <= 22.67129373
 Max_wind_spill_RT(w1,s2,t14): Wspill(w1,s2,t14) <= 23.25377463
 Max_wind_spill_RT(w1,s2,t15): Wspill(w1,s2,t15) <= 24.08429517
 Max_wind_spill_RT(w1,s2,t16): Wspill(w1,s2,t16) <= 25.67222511
 Max_wind_spill_RT(w1,s2,t17): Wspill(w1,s2,t17) <= 26.96292903
 Max_wind_spill_RT(w1,s2,t18): Wspill(w1,s2,t18) <= 27.84705837
 Max_wind_spill_RT(w1,s2,t19): Wspill(w1,s2,t19) <= 27.97611309
 Max_wind_spill_RT(w1,s2,t20): Wspill(w1,s2,t20) <= 26.64932952
 Max_wind_spill_RT(w1,s2,t21): Wspill(w1,s2,t21) <= 27.01809513
 Max_wind_spill_RT(w1,s2,t22): Wspill(w1,s2,t22) <= 28.32297243
 Max_wind_spill_RT(w1,s2,t23): Wspill(w1,s2,t23) <= 28.87685715
 Max_wind_spill_RT(w1,s2,t24): Wspill(w1,s2,t24) <= 28.64355426
Bounds
End
